(set-info :source |printed by MathSAT|)
(declare-fun |!{$(in_main#0)<N>}| () Int)
(declare-fun |!{$(in_main#0)<N>}.next| () Int)
(declare-fun |!{$(in_main#0)<&array>}| () Int)
(declare-fun |!{$(in_main#0)<&array>}.next| () Int)
(declare-fun |!{$(in_main#0)<k>}| () Int)
(declare-fun |!{$(in_main#0)<k>}.next| () Int)
(declare-fun |!{$(in_main#0)<k#1>}| () Int)
(declare-fun |!{$(in_main#0)<k#1>}.next| () Int)
(declare-fun |!{$(in_main#0)<v>}| () Int)
(declare-fun |!{$(in_main#0)<v>}.next| () Int)
(declare-fun |!{%memaddr}| () Int)
(declare-fun |!{%memaddr}.next| () Int)
(declare-fun |!{%mem.0}| () (Array Int Int))
(declare-fun |!{%mem.0}.next| () (Array Int Int))
(declare-fun |!{$(in_main#0)<$(in___VERIFIER_nondet_int#1)<h#<__VERIFIER_nondet_int.return>>>}| () Int)
(declare-fun |!{$(in_main#0)<$(in___VERIFIER_nondet_int#3)<h#<__VERIFIER_nondet_int.return>>>}| () Int)
(declare-fun |!{$(in_main#0)<$(in___VERIFIER_nondet_int#4)<h#<__VERIFIER_nondet_int.return>>>}| () Int)
(declare-fun |!{$(in_main#0)<$(in_rec_array_find#5)<$temp.1>>}| () Int)
(declare-fun |!{$(in_main#0)<$(in_rec_array_find#5)<$tmp>>}| () Int)
(declare-fun |!{$(in_main#0)<$(in_rec_array_find#5)<$(in_rec_array_find#0)<$temp.1>>>}| () Int)
(declare-fun |!{$(in_main#0)<$(in_rec_array_find#5)<$(in_rec_array_find#0)<$tmp>>>}| () Int)
(declare-fun !pc () Int)
(declare-fun !pc.next () Int)
(declare-fun |%{$(in_main#0)<k#1>}#1| () Int)
(declare-fun |%{$(in_main#0)<v>}#1| () Int)
(declare-fun |%{$(in_main#0)<$(in_rec_array_find#5)<rec_array_find.return>>}#3| () Int)
(declare-fun |%{$(in_main#0)<$(in_rec_array_find#5)<$(in_rec_array_find#0)<rec_array_find.return>>>}#3| () Int)
(declare-fun rec_array_find<0> (Int Int Int Int Int) Int)
(declare-fun |%{$(in_main#0)<$(in_rec_array_find#5)<$(in_rec_array_find#0)<$temp.1>>>}#3| () Int)
(declare-fun |%{$(in_main#0)<$(in_rec_array_find#5)<$(in_rec_array_find#0)<$tmp>>>}#3| () Int)
(declare-fun |%{$(in_main#0)<$(in_rec_array_find#5)<$temp.1>>}#3| () Int)
(declare-fun |%{$(in_main#0)<$(in_rec_array_find#5)<$tmp>>}#3| () Int)
(define-fun .def_66 () Int (! !pc :next !pc.next))
(define-fun .def_69 () Bool (! (= .def_66 2) :init true))
(define-fun .def_354 () Bool (= .def_66 51))
(define-fun .def_153 () Bool (= !pc.next 188))
(define-fun .def_361 () Bool (and .def_153 .def_354))
(define-fun .def_346 () Bool (= |!{$(in_main#0)<k#1>}.next| 0))
(define-fun .def_10 () Int (! |!{$(in_main#0)<&array>}| :next |!{$(in_main#0)<&array>}.next|))
(define-fun .def_118 () Bool (= .def_10 |!{$(in_main#0)<&array>}.next|))
(define-fun .def_8 () Int (! |!{$(in_main#0)<N>}| :next |!{$(in_main#0)<N>}.next|))
(define-fun .def_116 () Bool (= .def_8 |!{$(in_main#0)<N>}.next|))
(define-fun .def_130 () Bool (and .def_116 .def_118))
(define-fun .def_12 () Int (! |!{$(in_main#0)<k>}| :next |!{$(in_main#0)<k>}.next|))
(define-fun .def_120 () Bool (= .def_12 |!{$(in_main#0)<k>}.next|))
(define-fun .def_131 () Bool (and .def_120 .def_130))
(define-fun .def_347 () Bool (and .def_131 .def_346))
(define-fun .def_339 () Bool (= |!{$(in_main#0)<v>}.next| |!{$(in_main#0)<$(in___VERIFIER_nondet_int#4)<h#<__VERIFIER_nondet_int.return>>>}|))
(define-fun .def_348 () Bool (and .def_339 .def_347))
(define-fun .def_18 () Int (! |!{%memaddr}| :next |!{%memaddr}.next|))
(define-fun .def_126 () Bool (= .def_18 |!{%memaddr}.next|))
(define-fun .def_349 () Bool (and .def_126 .def_348))
(define-fun .def_20 () (Array Int Int) (! |!{%mem.0}| :next |!{%mem.0}.next|))
(define-fun .def_97 () Bool (= .def_20 |!{%mem.0}.next|))
(define-fun .def_350 () Bool (and .def_97 .def_349))
(define-fun .def_306 () Bool (= |%{$(in_main#0)<$(in_rec_array_find#5)<rec_array_find.return>>}#3| (- 1)))
(define-fun .def_351 () Bool (and .def_306 .def_350))
(define-fun .def_174 () Bool (<= 0 .def_8))
(define-fun .def_172 () Bool (<= .def_8 0))
(define-fun .def_173 () Bool (not .def_172))
(define-fun .def_175 () Bool (and .def_173 .def_174))
(define-fun .def_302 () Bool (not .def_175))
(define-fun .def_287 () Bool (= |!{$(in_main#0)<$(in_rec_array_find#5)<$temp.1>>}| |%{$(in_main#0)<$(in_rec_array_find#5)<$temp.1>>}#3|))
(define-fun .def_304 () Bool (and .def_287 .def_302))
(define-fun .def_293 () Bool (= |!{$(in_main#0)<$(in_rec_array_find#5)<$tmp>>}| |%{$(in_main#0)<$(in_rec_array_find#5)<$tmp>>}#3|))
(define-fun .def_305 () Bool (and .def_293 .def_304))
(define-fun .def_307 () Bool (and .def_305 .def_306))
(define-fun .def_297 () Bool (= |%{$(in_main#0)<$(in_rec_array_find#5)<rec_array_find.return>>}#3| |%{$(in_main#0)<$(in_rec_array_find#5)<$(in_rec_array_find#0)<rec_array_find.return>>>}#3|))
(define-fun .def_294 () Bool (= |%{$(in_main#0)<$(in_rec_array_find#5)<$(in_rec_array_find#0)<rec_array_find.return>>>}#3| |%{$(in_main#0)<$(in_rec_array_find#5)<$tmp>>}#3|))
(define-fun .def_288 () Bool (= |%{$(in_main#0)<$(in_rec_array_find#5)<$(in_rec_array_find#0)<rec_array_find.return>>>}#3| |%{$(in_main#0)<$(in_rec_array_find#5)<$temp.1>>}#3|))
(define-fun .def_278 () Bool (= |%{$(in_main#0)<$(in_rec_array_find#5)<$(in_rec_array_find#0)<rec_array_find.return>>>}#3| (- 1)))
(define-fun .def_204 () Bool (<= 2 .def_8))
(define-fun .def_202 () Bool (<= .def_8 1))
(define-fun .def_203 () Bool (not .def_202))
(define-fun .def_205 () Bool (and .def_203 .def_204))
(define-fun .def_271 () Bool (not .def_205))
(define-fun .def_253 () Bool (= |!{$(in_main#0)<$(in_rec_array_find#5)<$(in_rec_array_find#0)<$temp.1>>>}| |%{$(in_main#0)<$(in_rec_array_find#5)<$(in_rec_array_find#0)<$temp.1>>>}#3|))
(define-fun .def_276 () Bool (and .def_253 .def_271))
(define-fun .def_259 () Bool (= |!{$(in_main#0)<$(in_rec_array_find#5)<$(in_rec_array_find#0)<$tmp>>>}| |%{$(in_main#0)<$(in_rec_array_find#5)<$(in_rec_array_find#0)<$tmp>>>}#3|))
(define-fun .def_277 () Bool (and .def_259 .def_276))
(define-fun .def_279 () Bool (and .def_277 .def_278))
(define-fun .def_243 () Int (+ .def_8 (- 2)))
(define-fun .def_244 () Int (rec_array_find<0> .def_10 |!{$(in_main#0)<$(in___VERIFIER_nondet_int#4)<h#<__VERIFIER_nondet_int.return>>>}| 2 .def_243 .def_8))
(define-fun .def_263 () Bool (= |%{$(in_main#0)<$(in_rec_array_find#5)<$(in_rec_array_find#0)<rec_array_find.return>>>}#3| .def_244))
(define-fun .def_260 () Bool (= .def_244 |%{$(in_main#0)<$(in_rec_array_find#5)<$(in_rec_array_find#0)<$tmp>>>}#3|))
(define-fun .def_254 () Bool (= .def_244 |%{$(in_main#0)<$(in_rec_array_find#5)<$(in_rec_array_find#0)<$temp.1>>>}#3|))
(define-fun .def_181 () Int (+ .def_8 .def_10))
(define-fun .def_213 () Int (+ .def_181 (- 2)))
(define-fun .def_214 () Int (select .def_20 .def_213))
(define-fun .def_215 () Bool (= |!{$(in_main#0)<$(in___VERIFIER_nondet_int#4)<h#<__VERIFIER_nondet_int.return>>>}| .def_214))
(define-fun .def_242 () Bool (not .def_215))
(define-fun .def_206 () Int (+ .def_10 1))
(define-fun .def_207 () Int (select .def_20 .def_206))
(define-fun .def_208 () Bool (= |!{$(in_main#0)<$(in___VERIFIER_nondet_int#4)<h#<__VERIFIER_nondet_int.return>>>}| .def_207))
(define-fun .def_209 () Bool (not .def_208))
(define-fun .def_245 () Bool (and .def_209 .def_242))
(define-fun .def_256 () Bool (and .def_245 .def_254))
(define-fun .def_262 () Bool (and .def_256 .def_260))
(define-fun .def_264 () Bool (and .def_262 .def_263))
(define-fun .def_231 () Int (* (- 1) |%{$(in_main#0)<$(in_rec_array_find#5)<$(in_rec_array_find#0)<rec_array_find.return>>>}#3|))
(define-fun .def_232 () Int (+ .def_8 .def_231))
(define-fun .def_233 () Bool (= .def_232 2))
(define-fun .def_221 () Bool (and .def_209 .def_215))
(define-fun .def_235 () Bool (and .def_221 .def_233))
(define-fun .def_230 () Bool (= |%{$(in_main#0)<$(in_rec_array_find#5)<$(in_rec_array_find#0)<rec_array_find.return>>>}#3| 1))
(define-fun .def_234 () Bool (and .def_208 .def_230))
(define-fun .def_236 () Bool (or .def_234 .def_235))
(define-fun .def_255 () Bool (and .def_236 .def_253))
(define-fun .def_261 () Bool (and .def_255 .def_259))
(define-fun .def_265 () Bool (or .def_261 .def_264))
(define-fun .def_266 () Bool (and .def_205 .def_265))
(define-fun .def_280 () Bool (or .def_266 .def_279))
(define-fun .def_182 () Int (+ .def_181 (- 1)))
(define-fun .def_183 () Int (select .def_20 .def_182))
(define-fun .def_184 () Bool (= |!{$(in_main#0)<$(in___VERIFIER_nondet_int#4)<h#<__VERIFIER_nondet_int.return>>>}| .def_183))
(define-fun .def_201 () Bool (not .def_184))
(define-fun .def_281 () Bool (and .def_201 .def_280))
(define-fun .def_176 () Int (select .def_20 .def_10))
(define-fun .def_177 () Bool (= |!{$(in_main#0)<$(in___VERIFIER_nondet_int#4)<h#<__VERIFIER_nondet_int.return>>>}| .def_176))
(define-fun .def_178 () Bool (not .def_177))
(define-fun .def_282 () Bool (and .def_178 .def_281))
(define-fun .def_290 () Bool (and .def_282 .def_288))
(define-fun .def_296 () Bool (and .def_290 .def_294))
(define-fun .def_298 () Bool (and .def_296 .def_297))
(define-fun .def_193 () Int (* (- 1) |%{$(in_main#0)<$(in_rec_array_find#5)<rec_array_find.return>>}#3|))
(define-fun .def_194 () Int (+ .def_8 .def_193))
(define-fun .def_195 () Bool (= .def_194 1))
(define-fun .def_187 () Bool (and .def_178 .def_184))
(define-fun .def_197 () Bool (and .def_187 .def_195))
(define-fun .def_192 () Bool (= |%{$(in_main#0)<$(in_rec_array_find#5)<rec_array_find.return>>}#3| 0))
(define-fun .def_196 () Bool (and .def_177 .def_192))
(define-fun .def_198 () Bool (or .def_196 .def_197))
(define-fun .def_289 () Bool (and .def_198 .def_287))
(define-fun .def_295 () Bool (and .def_289 .def_293))
(define-fun .def_299 () Bool (or .def_295 .def_298))
(define-fun .def_300 () Bool (and .def_175 .def_299))
(define-fun .def_308 () Bool (or .def_300 .def_307))
(define-fun .def_352 () Bool (and .def_308 .def_351))
(define-fun .def_167 () Bool (<= .def_8 .def_12))
(define-fun .def_353 () Bool (and .def_167 .def_352))
(define-fun .def_362 () Bool (and .def_353 .def_361))
(define-fun .def_357 () Bool (= !pc.next 234))
(define-fun .def_358 () Bool (and .def_354 .def_357))
(define-fun .def_311 () Int (+ .def_10 |%{$(in_main#0)<$(in_rec_array_find#5)<rec_array_find.return>>}#3|))
(define-fun .def_312 () Int (select .def_20 .def_311))
(define-fun .def_313 () Bool (= |!{$(in_main#0)<$(in___VERIFIER_nondet_int#4)<h#<__VERIFIER_nondet_int.return>>>}| .def_312))
(define-fun .def_314 () Int (ite .def_313 1 0))
(define-fun .def_315 () Bool (= .def_314 0))
(define-fun .def_335 () Bool (and .def_116 .def_315))
(define-fun .def_336 () Bool (and .def_118 .def_335))
(define-fun .def_337 () Bool (and .def_120 .def_336))
(define-fun .def_14 () Int (! |!{$(in_main#0)<k#1>}| :next |!{$(in_main#0)<k#1>}.next|))
(define-fun .def_122 () Bool (= .def_14 |!{$(in_main#0)<k#1>}.next|))
(define-fun .def_338 () Bool (and .def_122 .def_337))
(define-fun .def_340 () Bool (and .def_338 .def_339))
(define-fun .def_341 () Bool (and .def_126 .def_340))
(define-fun .def_342 () Bool (and .def_97 .def_341))
(define-fun .def_310 () Bool (not .def_306))
(define-fun .def_343 () Bool (and .def_310 .def_342))
(define-fun .def_344 () Bool (and .def_308 .def_343))
(define-fun .def_345 () Bool (and .def_167 .def_344))
(define-fun .def_359 () Bool (and .def_345 .def_358))
(define-fun .def_101 () Bool (= !pc.next 51))
(define-fun .def_355 () Bool (and .def_101 .def_354))
(define-fun .def_169 () Int (+ .def_10 .def_12))
(define-fun .def_170 () (Array Int Int) (store .def_20 .def_169 |!{$(in_main#0)<$(in___VERIFIER_nondet_int#3)<h#<__VERIFIER_nondet_int.return>>>}|))
(define-fun .def_332 () Bool (= |!{%mem.0}.next| .def_170))
(define-fun .def_325 () Int (* (- 1) |!{$(in_main#0)<k>}.next|))
(define-fun .def_326 () Int (+ .def_12 .def_325))
(define-fun .def_327 () Bool (= .def_326 (- 1)))
(define-fun .def_328 () Bool (and .def_130 .def_327))
(define-fun .def_329 () Bool (and .def_122 .def_328))
(define-fun .def_16 () Int (! |!{$(in_main#0)<v>}| :next |!{$(in_main#0)<v>}.next|))
(define-fun .def_124 () Bool (= .def_16 |!{$(in_main#0)<v>}.next|))
(define-fun .def_330 () Bool (and .def_124 .def_329))
(define-fun .def_331 () Bool (and .def_126 .def_330))
(define-fun .def_333 () Bool (and .def_331 .def_332))
(define-fun .def_168 () Bool (not .def_167))
(define-fun .def_334 () Bool (and .def_168 .def_333))
(define-fun .def_356 () Bool (and .def_334 .def_355))
(define-fun .def_360 () Bool (or .def_356 .def_359))
(define-fun .def_363 () Bool (or .def_360 .def_362))
(define-fun .def_157 () Bool (= !pc.next 0))
(define-fun .def_148 () Bool (= .def_66 188))
(define-fun .def_158 () Bool (and .def_148 .def_157))
(define-fun .def_142 () Bool (and .def_122 .def_131))
(define-fun .def_143 () Bool (and .def_124 .def_142))
(define-fun .def_144 () Bool (and .def_126 .def_143))
(define-fun .def_145 () Bool (and .def_97 .def_144))
(define-fun .def_104 () Bool (<= .def_8 .def_14))
(define-fun .def_146 () Bool (and .def_104 .def_145))
(define-fun .def_159 () Bool (and .def_146 .def_158))
(define-fun .def_154 () Bool (and .def_148 .def_153))
(define-fun .def_133 () Int (* (- 1) |!{$(in_main#0)<k#1>}.next|))
(define-fun .def_134 () Int (+ .def_14 .def_133))
(define-fun .def_135 () Bool (= .def_134 (- 1)))
(define-fun .def_136 () Bool (and .def_131 .def_135))
(define-fun .def_137 () Bool (and .def_124 .def_136))
(define-fun .def_138 () Bool (and .def_126 .def_137))
(define-fun .def_139 () Bool (and .def_97 .def_138))
(define-fun .def_106 () Int (+ .def_10 .def_14))
(define-fun .def_107 () Int (select .def_20 .def_106))
(define-fun .def_108 () Bool (= .def_16 .def_107))
(define-fun .def_109 () Bool (not .def_108))
(define-fun .def_110 () Int (ite .def_109 1 0))
(define-fun .def_111 () Bool (= .def_110 0))
(define-fun .def_112 () Bool (not .def_111))
(define-fun .def_140 () Bool (and .def_112 .def_139))
(define-fun .def_105 () Bool (not .def_104))
(define-fun .def_141 () Bool (and .def_105 .def_140))
(define-fun .def_155 () Bool (and .def_141 .def_154))
(define-fun .def_150 () Bool (= !pc.next 208))
(define-fun .def_151 () Bool (and .def_148 .def_150))
(define-fun .def_117 () Bool (and .def_111 .def_116))
(define-fun .def_119 () Bool (and .def_117 .def_118))
(define-fun .def_121 () Bool (and .def_119 .def_120))
(define-fun .def_123 () Bool (and .def_121 .def_122))
(define-fun .def_125 () Bool (and .def_123 .def_124))
(define-fun .def_127 () Bool (and .def_125 .def_126))
(define-fun .def_128 () Bool (and .def_97 .def_127))
(define-fun .def_129 () Bool (and .def_105 .def_128))
(define-fun .def_152 () Bool (and .def_129 .def_151))
(define-fun .def_156 () Bool (or .def_152 .def_155))
(define-fun .def_160 () Bool (or .def_156 .def_159))
(define-fun .def_102 () Bool (and .def_69 .def_101))
(define-fun .def_95 () Bool (= |!{%memaddr}.next| 2))
(define-fun .def_93 () Bool (= |!{$(in_main#0)<v>}.next| |%{$(in_main#0)<v>}#1|))
(define-fun .def_91 () Bool (= |!{$(in_main#0)<k#1>}.next| |%{$(in_main#0)<k#1>}#1|))
(define-fun .def_89 () Bool (= |!{$(in_main#0)<k>}.next| 0))
(define-fun .def_87 () Bool (= |!{$(in_main#0)<&array>}.next| 1))
(define-fun .def_86 () Bool (= |!{$(in_main#0)<N>}.next| |!{$(in_main#0)<$(in___VERIFIER_nondet_int#1)<h#<__VERIFIER_nondet_int.return>>>}|))
(define-fun .def_88 () Bool (and .def_86 .def_87))
(define-fun .def_90 () Bool (and .def_88 .def_89))
(define-fun .def_92 () Bool (and .def_90 .def_91))
(define-fun .def_94 () Bool (and .def_92 .def_93))
(define-fun .def_96 () Bool (and .def_94 .def_95))
(define-fun .def_98 () Bool (and .def_96 .def_97))
(define-fun .def_81 () Bool (<= |!{$(in_main#0)<$(in___VERIFIER_nondet_int#1)<h#<__VERIFIER_nondet_int.return>>>}| 0))
(define-fun .def_82 () Bool (not .def_81))
(define-fun .def_83 () Int (ite .def_82 1 0))
(define-fun .def_84 () Bool (= .def_83 0))
(define-fun .def_85 () Bool (not .def_84))
(define-fun .def_99 () Bool (and .def_85 .def_98))
(define-fun .def_103 () Bool (and .def_99 .def_102))
(define-fun .def_161 () Bool (or .def_103 .def_160))
(define-fun .def_364 () Bool (! (or .def_161 .def_363) :trans true))
(define-fun .def_165 () Bool (= .def_66 234))
(define-fun .def_162 () Bool (= .def_66 208))
(define-fun .def_365 () Bool (or .def_162 .def_165))
(define-fun .def_366 () Bool (! (not .def_365) :invar-property 0 :invar-property-name ||))
(assert true)
